500
1000
265
265
265
265
263
263
263
262
262
261
261
260
260
258
258
258
258
258
257
257
257
257
257
256
256
255
255
254
254
254
253
253
253
253
253
252
252
251
251
250
250
250
249
248
248
248
248
247
247
247
246
246
246
246
245
243
243
242
241
241
241
240
240
240
240
238
238
238
238
238
238
238
238
238
237
236
235
235
234
234
234
232
232
230
230
229
228
227
227
227
226
226
226
226
226
226
225
224
223
223
223
223
223
223
222
222
222
221
221
221
220
220
219
219
218
217
217
217
217
217
216
216
215
215
215
214
212
212
212
212
211
211
210
210
209
208
208
207
205
205
204
204
204
203
203
203
202
202
201
201
201
200
200
200
199
198
197
197
196
195
195
194
194
194
194
194
194
193
193
192
190
190
190
190
190
189
189
189
189
189
188
188
188
187
187
186
186
185
185
185
185
184
184
183
183
182
181
181
180
180
179
179
177
176
176
176
175
174
174
173
167
167
166
166
165
165
165
165
164
164
164
163
161
160
160
159
159
159
156
156
155
155
154
154
154
153
152
152
152
150
150
150
149
147
146
145
144
144
144
144
143
143
142
142
142
141
140
139
139
138
138
138
138
137
136
135
135
135
134
134
134
133
132
132
132
132
131
131
130
130
130
130
129
128
128
128
128
128
128
127
127
127
127
127
125
124
124
124
124
123
123
123
122
121
121
121
121
120
120
119
119
118
118
117
117
116
116
115
115
114
114
114
113
112
112
112
112
111
111
111
111
110
109
108
108
108
107
107
107
106
105
105
104
102
102
101
101
101
99
98
98
97
97
97
97
96
95
94
94
93
91
91
91
91
90
90
90
89
88
88
88
88
88
87
86
86
85
85
85
85
84
84
84
82
82
82
81
81
81
81
80
80
79
79
78
78
78
74
74
74
74
72
71
70
70
69
68
68
67
65
65
65
65
63
61
61
61
61
60
60
59
58
58
58
58
58
57
56
56
56
55
55
54
54
54
54
53
53
51
51
48
48
47
47
46
46
45
44
44
43
42
42
42
41
41
41
40
39
38
37
36
35
34
33
32
32
32
32
31
31
30
28
28
27
27
27
27
26
26
24
24
23
22
21
20
20
20
19
19
19
18
18
18
18
17
17
16
16
16
16
